\ Model RDS
\ LP format - for model browsing. Use MPS format to capture full model detail.
Minimize
  5.7525911617239305e-04 I + 0.00307595167324284 I + 0.00228356655660625 I
   + 0.00237777927519847 I + 0.00510994811437299 I + 0.00116798814042811 I
   + 0.0044386045037423 I + 0.00642643047350938 I + 0.00651378 I
   + 0.00122663711756499 I + 0.00233597628085623 I + 0.00915922323797259 I
   + 0.00337917936354629 I + 0.00368739845615927 I + 0.00465635442949519 I
   + 0.00804239697121708 I + 0.00456713311321249 I + 0.00102323747345198 I
   + 0.00938508419247846 I + 0.0025549740571865 I + 0.00442300637152505 I
   + 0.00281515090257032 I + 0.00560284909243827 I + 0.00559037058666447 I
   + 0.00126656833604117 I + 0.00177319567045764 I + 0.00660736880722955 I
   + 0.00501760717164684 I + 0.00316642084010292 I + 0.00607952801299761 I
   + 0.00193728802138317 I + 0.00212758523443369 I + 0.0124785057738046 I
   + 0.0124785057738046 I + 0.0124785057738046 I + 0.00311962644345116 I
   + 0.00311962644345116 I
Subject To
 potenciaA<=_1: - 5.7525911617239305e-04 I - p <= 0
 potenciaA=_2: p - 0.00307595167324284 I - p - 0.00102323747345198 I - p
   = 0.1
 potenciaA=_3: p - 0.00228356655660625 I - p - 0.00281515090257032 I - p
   = 0.09
 potenciaA=_4: p - 0.00237777927519847 I - p = 0.12
 potenciaA=_5: p - 0.00510994811437299 I - p = 0.06
 potenciaA=_6: p - 0.00116798814042811 I - p - 0.00126656833604117 I - p
   = 0.06
 potenciaA=_7: p - 0.0044386045037423 I - p = 0.2
 potenciaA=_8: p - 0.00642643047350938 I - p - 0.0124785057738046 I - p
   = 0.2
 potenciaA=_9: p - 0.00651378 I - p - 0.0124785057738046 I - p = 0.06
 potenciaA=_10: p - 0.00122663711756499 I - p = 0.06
 potenciaA=_11: p - 0.00233597628085623 I - p = 0.045
 potenciaA=_12: p - 0.00915922323797259 I - p - 0.0124785057738046 I - p
   = 0.06
 potenciaA=_13: p - 0.00337917936354629 I - p = 0.06
 potenciaA=_14: p - 0.00368739845615927 I - p = 0.12
 potenciaA=_15: p - 0.00465635442949519 I - p + p = 0.06
 potenciaA=_16: p - 0.00804239697121708 I - p = 0.06
 potenciaA=_17: p - 0.00456713311321249 I - p = 0.06
 potenciaA=_18: p - 0.00311962644345116 I - p = 0.09
 potenciaA=_19: p - 0.00938508419247846 I - p = 0.09
 potenciaA=_20: p - 0.0025549740571865 I - p = 0.09
 potenciaA=_21: p - 0.00442300637152505 I - p + p = 0.09
 potenciaA=_22: p + p = 0.09
 potenciaA=_23: p - 0.00560284909243827 I - p = 0.09
 potenciaA=_24: p - 0.00559037058666447 I - p = 0.42
 potenciaA=_25: p - 0.00311962644345116 I - p = 0.42
 potenciaA=_26: p - 0.00177319567045764 I - p = 0.06
 potenciaA=_27: p - 0.00660736880722955 I - p = 0.06
 potenciaA=_28: p - 0.00501760717164684 I - p = 0.06
 potenciaA=_29: p - 0.00316642084010292 I - p + p = 0.12
 potenciaA=_30: p - 0.00607952801299761 I - p = 0.2
 potenciaA=_31: p - 0.00193728802138317 I - p = 0.15
 potenciaA=_32: p - 0.00212758523443369 I - p = 0.21
 potenciaA=_33: p + p = 0.06
 R33: - 2.9324488568440859e-04 I - q <= 0
 R34: q - 0.00156667639990117 I - q - 0.000976443 I - q = 0.06
 R35: q - 0.00116299673811859 I - q - 0.00192356166503198 I - q = 0.04
 R36: q - 0.00121103898534774 I - q = 0.08
 R37: q - 0.00441115179103993 I - q = 0.03
 R38: q - 0.00386084968641515 I - q - 6.4513874850569901e-04 I - q = 0.02
 R39: q - 0.00146684835371073 I - q = 0.1
 R40: q - 0.00461704713630771 I - q - 0.0124785057738046 I - q = 0.1
 R41: q - 0.00461704713630771 I - q - 0.0124785057738046 I - q = 0.02
 R42: q - 4.0555143764865021e-04 I - q = 0.02
 R43: q - 7.7241950739850602e-04 I - q = 0.03
 R44: q - 0.00720633708437217 I - q - 0.0124785057738046 I - q = 0.035
 R45: q - 0.00444796338307266 I - q = 0.035
 R46: q - 0.00328184701851062 I - q = 0.08
 R47: q - 0.00340039282336176 I - q + q = 0.01
 R48: q - 0.0107377542183589 I - q = 0.02
 R49: q - 0.00358133115708193 I - q = 0.02
 R50: q - 0.00311962644345116 I - q = 0.04
 R51: q - 0.00845668336290739 I - q = 0.04
 R52: q - 0.00298485858109407 I - q = 0.04
 R53: q - 0.00584805173089354 I - q + q = 0.04
 R54: q + q = 0.04
 R55: q - 0.00442425422210243 I - q = 0.05
 R56: q - 0.00437434019900721 I - q = 0.2
 R57: q - 0.00311962644345116 I - q = 0.2
 R58: q - 9.0281989273476439e-04 I - q = 0.025
 R59: q - 0.00582559042050069 I - q = 0.025
 R60: q - 0.00437122057256376 I - q = 0.02
 R61: q - 0.00161284687126425 I - q + q = 0.07
 R62: q - 0.00600840053008693 I - q = 0.6
 R63: q - 0.00225798561976995 I - q = 0.07
 R64: q - 0.00330805188063561 I - q = 0.1
 R65: q + q = 0.04
 R66: - delta + 4.16916e-07 I - 0.00115051823234479 p
   - 5.8648977136881717e-04 q + v - v = 0
 R67: - delta + 1.1916e-05 I - 0.00615190334648568 p
   - 0.00313335279980234 q + v - v = 0
 R68: - delta + 6.56724e-06 I - 0.00456713311321249 p
   - 0.00232599347623718 q + v - v = 0
 R69: - delta + 7.12045e-06 I - 0.00475555855039694 p
   - 0.00242207797069548 q + v - v = 0
 R70: - delta + 4.55698e-05 I - 0.010219896228746 p - 0.00882230358207987 q
   + v - v = 0
 R71: - delta + 1.62704e-05 I - 0.00233597628085623 p
   - 0.0077216993728303 q + v - v = 0
 R72: - delta + 2.18529e-05 I - 0.00887720900748461 p
   - 0.00293369670742147 q + v - v = 0
 R73: - delta + 6.26161e-05 I - 0.0128528609470188 p
   - 0.00923409427261542 q + v - v = 0
 R74: - delta + 6.37465e-05 I - 0.013027560027852 p - 0.00923409427261542 q
   + v - v = 0
 R75: - delta + 1.66911e-06 I - 0.00245327423512999 p
   - 8.1110287529730042e-04 q + v - v = 0
 R76: - delta + 6.05342e-06 I - 0.00467195256171245 p
   - 0.00154483901479701 q + v - v = 0
 R77: - delta + 1.358226644966147e-04 I - 0.0183184464759452 p
   - 0.0144126741687443 q + v - v = 0
 R78: - delta + 3.12032e-05 I - 0.00675835872709258 p
   - 0.00889592676614531 q + v - v = 0
 R79: - delta + 2.43674e-05 I - 0.00737479691231853 p
   - 0.00656369403702123 q + v - v = 0
 R80: - delta + 3.32443e-05 I - 0.00931270885899039 p
   - 0.00680078564672352 q + v - v = 0
 R81: - delta + 1.799795146965255e-04 I - 0.0160847939424342 p
   - 0.0214755084367178 q + v - v = 0
 R82: - delta + 3.36846e-05 I - 0.00913426622642498 p
   - 0.00716266231416385 q + v - v = 0
 R83: - delta + 2.00046e-06 I - 0.00204647494690396 p
   - 0.00195288615360042 q + v - v = 0
 R84: - delta + 1.5959529880038364e-04 I - 0.0187701683849569 p
   - 0.0169133667258148 q + v - v = 0
 R85: - delta + 1.54373e-05 I - 0.00510994811437299 p
   - 0.00596971716218813 q + v - v = 0
 R86: - delta + 5.37627e-05 I - 0.0088460127430501 p - 0.0116961034617871 q
   + v - v = 0
 R87: - delta + 1.16252e-05 I - 0.00563030180514065 p
   - 0.00384712333006396 q + v - v = 0
 R88: - delta + 5.09659e-05 I - 0.0112056981848765 p
   - 0.00884850844420486 q + v - v = 0
 R89: - delta + 5.03871e-05 I - 0.0111807411733289 p
   - 0.00874868039801442 q + v - v = 0
 R90: - delta + 2.0204e-06 I - 0.00253313667208234 p - 0.0012902774970114 q
   + v - v = 0
 R91: - delta + 3.95931e-06 I - 0.00354639134091527 p
   - 0.00180563978546953 q + v - v = 0
 R92: - delta + 7.75948e-05 I - 0.0132147376144591 p - 0.0116511808410014 q
   + v - v = 0
 R93: - delta + 4.4284e-05 I - 0.0100352143432937 p - 0.00874244114512752 q
   + v - v = 0
 R94: - delta + 1.26275e-05 I - 0.00633284168020585 p
   - 0.00322569374252849 q + v - v = 0
 R95: - delta + 7.30615e-05 I - 0.0121590560259952 p - 0.0120168010601739 q
   + v - v = 0
 R96: - delta + 8.85158e-06 I - 0.00387457604276633 p
   - 0.00451597123953989 q + v - v = 0
 R97: - delta + 1.54698e-05 I - 0.00425517046886738 p
   - 0.00661610376127121 q + v - v = 0
 R98: - delta + 3.1142621269375059e-04 I - 0.0249570115476092 p
   - 0.0249570115476092 q + v - v = 0
 R99: - delta + 3.1142621269375059e-04 I - 0.0249570115476092 p
   - 0.0249570115476092 q + v - v = 0
 R100: - delta + 3.1142621269375059e-04 I - 0.0249570115476092 p
   - 0.0249570115476092 q + v - v = 0
 R101: - delta + 1.94641e-05 I - 0.00623925288690231 p
   - 0.00623925288690231 q + v - v = 0
 R102: - delta + 1.94641e-05 I - 0.00623925288690231 p
   - 0.00623925288690231 q + v - v = 0
 R103: v >= 0.8649
 R104: v <= 1.1025
 R105: v >= 0.8649
 R106: v <= 1.1025
 R107: v >= 0.8649
 R108: v <= 1.1025
 R109: v >= 0.8649
 R110: v <= 1.1025
 R111: v >= 0.8649
 R112: v <= 1.1025
 R113: v >= 0.8649
 R114: v <= 1.1025
 R115: v >= 0.8649
 R116: v <= 1.1025
 R117: v >= 0.8649
 R118: v <= 1.1025
 R119: v >= 0.8649
 R120: v <= 1.1025
 R121: v >= 0.8649
 R122: v <= 1.1025
 R123: v >= 0.8649
 R124: v <= 1.1025
 R125: v >= 0.8649
 R126: v <= 1.1025
 R127: v >= 0.8649
 R128: v <= 1.1025
 R129: v >= 0.8649
 R130: v <= 1.1025
 R131: v >= 0.8649
 R132: v <= 1.1025
 R133: v >= 0.8649
 R134: v <= 1.1025
 R135: v >= 0.8649
 R136: v <= 1.1025
 R137: v >= 0.8649
 R138: v <= 1.1025
 R139: v >= 0.8649
 R140: v <= 1.1025
 R141: v >= 0.8649
 R142: v <= 1.1025
 R143: v >= 0.8649
 R144: v <= 1.1025
 R145: v >= 0.8649
 R146: v <= 1.1025
 R147: v >= 0.8649
 R148: v <= 1.1025
 R149: v >= 0.8649
 R150: v <= 1.1025
 R151: v >= 0.8649
 R152: v <= 1.1025
 R153: v >= 0.8649
 R154: v <= 1.1025
 R155: v >= 0.8649
 R156: v <= 1.1025
 R157: v >= 0.8649
 R158: v <= 1.1025
 R159: v >= 0.8649
 R160: v <= 1.1025
 R161: v >= 0.8649
 R162: v <= 1.1025
 R163: v >= 0.8649
 R164: v <= 1.1025
 R165: v >= 0.8649
 R166: v <= 1.1025
 R167: v >= 0.8649
 R168: v <= 1.1025
 R169: I >= 0
 R170: - 3.3315902217644844e+06 y + I <= 0
 R171: I >= 0
 R172: - 116525.1262946336 y + I <= 0
 R173: I >= 0
 R174: - 211422.5224759204 y + I <= 0
 R175: I >= 0
 R176: - 195000.4094734704 y + I <= 0
 R177: I >= 0
 R178: - 42222.66264852071 y + I <= 0
 R179: I >= 0
 R180: - 808168.1522568415 y + I <= 0
 R181: I >= 0
 R182: - 55961.02997337548 y + I <= 0
 R183: I >= 0
 R184: - 26695.55605691809 y + I <= 0
 R185: I >= 0
 R186: - 25984.38387280024 y + I <= 0
 R187: I >= 0
 R188: - 732734.0842331954 y + I <= 0
 R189: I >= 0
 R190: - 202042.0380642104 y + I <= 0
 R191: I >= 0
 R192: - 13141.99536561282 y + I <= 0
 R193: I >= 0
 R194: - 96550.85177890908 y + I <= 0
 R195: I >= 0
 R196: - 81084.61502567964 y + I <= 0
 R197: I >= 0
 R198: - 50849.48252333003 y + I <= 0
 R199: I >= 0
 R200: - 17045.41526756774 y + I <= 0
 R201: I >= 0
 R202: - 52855.63061898011 y + I <= 0
 R203: I >= 0
 R204: - 1.0529935834616448e+06 y + I <= 0
 R205: I >= 0
 R206: - 12517.05764160152 y + I <= 0
 R207: I >= 0
 R208: - 168890.6505940828 y + I <= 0
 R209: I >= 0
 R210: - 56356.4292242677 y + I <= 0
 R211: I >= 0
 R212: - 139115.4096404093 y + I <= 0
 R213: I >= 0
 R214: - 35120.50463636639 y + I <= 0
 R215: I >= 0
 R216: - 35277.46759006348 y + I <= 0
 R217: I >= 0
 R218: - 687260.4387581452 y + I <= 0
 R219: I >= 0
 R220: - 350643.0809990536 y + I <= 0
 R221: I >= 0
 R222: - 25253.4955302715 y + I <= 0
 R223: I >= 0
 R224: - 43791.04240907394 y + I <= 0
 R225: I >= 0
 R226: - 109961.6702013032 y + I <= 0
 R227: I >= 0
 R228: - 29829.01209887781 y + I <= 0
 R229: I >= 0
 R230: - 293758.3443750473 y + I <= 0
 R231: I >= 0
 R232: - 243559.2695348715 y + I <= 0
 R233: I >= 0
 R234: - 7080.3288551961 y + I <= 0
 R235: I >= 0
 R236: - 7080.3288551961 y + I <= 0
 R237: I >= 0
 R238: - 7080.3288551961 y + I <= 0
 R239: I >= 0
 R240: - 113285.2616831376 y + I <= 0
 R241: I >= 0
 R242: - 113285.2616831376 y + I <= 0
 radialidad: y + y + y + y + y + y + y + y + y + y + y + y + y + y + y + y
   + y + y + y + y + y + y + y + y + y + y + y + y + y + y + y + y + y + y
   + y + y + y = 32
 conexo_1: y >= 1
 conexo_2: y + y + y >= 1
 conexo_3: y + y + y >= 1
 conexo_4: y + y >= 1
 conexo_5: y + y >= 1
 conexo_6: y + y + y >= 1
 conexo_7: y + y >= 1
 conexo_8: y + y + y >= 1
 conexo_9: y + y + y >= 1
 conexo_10: y + y >= 1
 conexo_11: y + y >= 1
 conexo_12: y + y + y >= 1
 conexo_13: y + y >= 1
 conexo_14: y + y >= 1
 conexo_15: y + y + y >= 1
 conexo_16: y + y >= 1
 conexo_17: y + y >= 1
 conexo_18: y + y >= 1
 conexo_19: y + y >= 1
 conexo_20: y + y >= 1
 conexo_21: y + y + y >= 1
 conexo_22: y + y >= 1
 conexo_23: y + y >= 1
 conexo_24: y + y >= 1
 conexo_25: y + y >= 1
 conexo_26: y + y >= 1
 conexo_27: y + y >= 1
 conexo_28: y + y >= 1
 conexo_29: y + y + y >= 1
 conexo_30: y + y >= 1
 conexo_31: y + y >= 1
 conexo_32: y + y >= 1
 conexo_33: y + y >= 1
 qc0: - delta - bv + [ y * bv ] <= 0
 qc1: delta - bv + [ y * bv ] <= 0
 qc2: - delta - bv + [ y * bv ] <= 0
 qc3: delta - bv + [ y * bv ] <= 0
 qc4: - delta - bv + [ y * bv ] <= 0
 qc5: delta - bv + [ y * bv ] <= 0
 qc6: - delta - bv + [ y * bv ] <= 0
 qc7: delta - bv + [ y * bv ] <= 0
 qc8: - delta - bv + [ y * bv ] <= 0
 qc9: delta - bv + [ y * bv ] <= 0
 qc10: - delta - bv + [ y * bv ] <= 0
 qc11: delta - bv + [ y * bv ] <= 0
 qc12: - delta - bv + [ y * bv ] <= 0
 qc13: delta - bv + [ y * bv ] <= 0
 qc14: - delta - bv + [ y * bv ] <= 0
 qc15: delta - bv + [ y * bv ] <= 0
 qc16: - delta - bv + [ y * bv ] <= 0
 qc17: delta - bv + [ y * bv ] <= 0
 qc18: - delta - bv + [ y * bv ] <= 0
 qc19: delta - bv + [ y * bv ] <= 0
 qc20: - delta - bv + [ y * bv ] <= 0
 qc21: delta - bv + [ y * bv ] <= 0
 qc22: - delta - bv + [ y * bv ] <= 0
 qc23: delta - bv + [ y * bv ] <= 0
 qc24: - delta - bv + [ y * bv ] <= 0
 qc25: delta - bv + [ y * bv ] <= 0
 qc26: - delta - bv + [ y * bv ] <= 0
 qc27: delta - bv + [ y * bv ] <= 0
 qc28: - delta - bv + [ y * bv ] <= 0
 qc29: delta - bv + [ y * bv ] <= 0
 qc30: - delta - bv + [ y * bv ] <= 0
 qc31: delta - bv + [ y * bv ] <= 0
 qc32: - delta - bv + [ y * bv ] <= 0
 qc33: delta - bv + [ y * bv ] <= 0
 qc34: - delta - bv + [ y * bv ] <= 0
 qc35: delta - bv + [ y * bv ] <= 0
 qc36: - delta - bv + [ y * bv ] <= 0
 qc37: delta - bv + [ y * bv ] <= 0
 qc38: - delta - bv + [ y * bv ] <= 0
 qc39: delta - bv + [ y * bv ] <= 0
 qc40: - delta - bv + [ y * bv ] <= 0
 qc41: delta - bv + [ y * bv ] <= 0
 qc42: - delta - bv + [ y * bv ] <= 0
 qc43: delta - bv + [ y * bv ] <= 0
 qc44: - delta - bv + [ y * bv ] <= 0
 qc45: delta - bv + [ y * bv ] <= 0
 qc46: - delta - bv + [ y * bv ] <= 0
 qc47: delta - bv + [ y * bv ] <= 0
 qc48: - delta - bv + [ y * bv ] <= 0
 qc49: delta - bv + [ y * bv ] <= 0
 qc50: - delta - bv + [ y * bv ] <= 0
 qc51: delta - bv + [ y * bv ] <= 0
 qc52: - delta - bv + [ y * bv ] <= 0
 qc53: delta - bv + [ y * bv ] <= 0
 qc54: - delta - bv + [ y * bv ] <= 0
 qc55: delta - bv + [ y * bv ] <= 0
 qc56: - delta - bv + [ y * bv ] <= 0
 qc57: delta - bv + [ y * bv ] <= 0
 qc58: - delta - bv + [ y * bv ] <= 0
 qc59: delta - bv + [ y * bv ] <= 0
 qc60: - delta - bv + [ y * bv ] <= 0
 qc61: delta - bv + [ y * bv ] <= 0
 qc62: - delta - bv + [ y * bv ] <= 0
 qc63: delta - bv + [ y * bv ] <= 0
 qc64: - delta - bv + [ y * bv ] <= 0
 qc65: delta - bv + [ y * bv ] <= 0
 qc66: - delta - bv + [ y * bv ] <= 0
 qc67: delta - bv + [ y * bv ] <= 0
 qc68: - delta - bv + [ y * bv ] <= 0
 qc69: delta - bv + [ y * bv ] <= 0
 qc70: - delta - bv + [ y * bv ] <= 0
 qc71: delta - bv + [ y * bv ] <= 0
 qc72: - delta - bv + [ y * bv ] <= 0
 qc73: delta - bv + [ y * bv ] <= 0
 qc74: [ I * v - p ^2 - q ^2 ] >= 0
 qc75: [ I * v - p ^2 - q ^2 ] >= 0
 qc76: [ I * v - p ^2 - q ^2 ] >= 0
 qc77: [ I * v - p ^2 - q ^2 ] >= 0
 qc78: [ I * v - p ^2 - q ^2 ] >= 0
 qc79: [ I * v - p ^2 - q ^2 ] >= 0
 qc80: [ I * v - p ^2 - q ^2 ] >= 0
 qc81: [ I * v - p ^2 - q ^2 ] >= 0
 qc82: [ I * v - p ^2 - q ^2 ] >= 0
 qc83: [ I * v - p ^2 - q ^2 ] >= 0
 qc84: [ I * v - p ^2 - q ^2 ] >= 0
 qc85: [ I * v - p ^2 - q ^2 ] >= 0
 qc86: [ I * v - p ^2 - q ^2 ] >= 0
 qc87: [ I * v - p ^2 - q ^2 ] >= 0
 qc88: [ I * v - p ^2 - q ^2 ] >= 0
 qc89: [ I * v - p ^2 - q ^2 ] >= 0
 qc90: [ I * v - p ^2 - q ^2 ] >= 0
 qc91: [ I * v - p ^2 - q ^2 ] >= 0
 qc92: [ I * v - p ^2 - q ^2 ] >= 0
 qc93: [ I * v - p ^2 - q ^2 ] >= 0
 qc94: [ I * v - p ^2 - q ^2 ] >= 0
 qc95: [ I * v - p ^2 - q ^2 ] >= 0
 qc96: [ I * v - p ^2 - q ^2 ] >= 0
 qc97: [ I * v - p ^2 - q ^2 ] >= 0
 qc98: [ I * v - p ^2 - q ^2 ] >= 0
 qc99: [ I * v - p ^2 - q ^2 ] >= 0
 qc100: [ I * v - p ^2 - q ^2 ] >= 0
 qc101: [ I * v - p ^2 - q ^2 ] >= 0
 qc102: [ I * v - p ^2 - q ^2 ] >= 0
 qc103: [ I * v - p ^2 - q ^2 ] >= 0
 qc104: [ I * v - p ^2 - q ^2 ] >= 0
 qc105: [ I * v - p ^2 - q ^2 ] >= 0
 qc106: [ I * v - p ^2 - q ^2 ] >= 0
 qc107: [ I * v - p ^2 - q ^2 ] >= 0
 qc108: [ I * v - p ^2 - q ^2 ] >= 0
 qc109: [ I * v - p ^2 - q ^2 ] >= 0
 qc110: [ I * v - p ^2 - q ^2 ] >= 0
Bounds
 -0.12 <= delta <= 0.12
 -0.12 <= delta <= 0.12
 -0.12 <= delta <= 0.12
 -0.12 <= delta <= 0.12
 -0.12 <= delta <= 0.12
 -0.12 <= delta <= 0.12
 -0.12 <= delta <= 0.12
 -0.12 <= delta <= 0.12
 -0.12 <= delta <= 0.12
 -0.12 <= delta <= 0.12
 -0.12 <= delta <= 0.12
 -0.12 <= delta <= 0.12
 -0.12 <= delta <= 0.12
 -0.12 <= delta <= 0.12
 -0.12 <= delta <= 0.12
 -0.12 <= delta <= 0.12
 -0.12 <= delta <= 0.12
 -0.12 <= delta <= 0.12
 -0.12 <= delta <= 0.12
 -0.12 <= delta <= 0.12
 -0.12 <= delta <= 0.12
 -0.12 <= delta <= 0.12
 -0.12 <= delta <= 0.12
 -0.12 <= delta <= 0.12
 -0.12 <= delta <= 0.12
 -0.12 <= delta <= 0.12
 -0.12 <= delta <= 0.12
 -0.12 <= delta <= 0.12
 -0.12 <= delta <= 0.12
 -0.12 <= delta <= 0.12
 -0.12 <= delta <= 0.12
 -0.12 <= delta <= 0.12
 -0.12 <= delta <= 0.12
 -0.12 <= delta <= 0.12
 -0.12 <= delta <= 0.12
 -0.12 <= delta <= 0.12
 -0.12 <= delta <= 0.12
 0.8649 <= v <= 1.1025
 0.8649 <= v <= 1.1025
 0.8649 <= v <= 1.1025
 0.8649 <= v <= 1.1025
 0.8649 <= v <= 1.1025
 0.8649 <= v <= 1.1025
 0.8649 <= v <= 1.1025
 0.8649 <= v <= 1.1025
 0.8649 <= v <= 1.1025
 0.8649 <= v <= 1.1025
 0.8649 <= v <= 1.1025
 0.8649 <= v <= 1.1025
 0.8649 <= v <= 1.1025
 0.8649 <= v <= 1.1025
 0.8649 <= v <= 1.1025
 0.8649 <= v <= 1.1025
 0.8649 <= v <= 1.1025
 0.8649 <= v <= 1.1025
 0.8649 <= v <= 1.1025
 0.8649 <= v <= 1.1025
 0.8649 <= v <= 1.1025
 0.8649 <= v <= 1.1025
 0.8649 <= v <= 1.1025
 0.8649 <= v <= 1.1025
 0.8649 <= v <= 1.1025
 0.8649 <= v <= 1.1025
 0.8649 <= v <= 1.1025
 0.8649 <= v <= 1.1025
 0.8649 <= v <= 1.1025
 0.8649 <= v <= 1.1025
 0.8649 <= v <= 1.1025
 0.8649 <= v <= 1.1025
 0.8649 <= v <= 1.1025
Binaries
 y y y y y y y y y y y y y y y y y y y y y y y y y y y y y y y y y y y y y
End
